12 48 3 10
2 18 19 12 3 9 7 6 5 13 20 8 20 4 12 7 20 16 17 7 6 6 11 14 13 19 14 6 17 6 9 17 20 8 16 17 11 4 13 9 20 1 10 4 12 8 12 3 
6.09 4.62 0.41 4.63 6.43 6.48 3 1.68 5.15 1.5 7 3.3 5.61 3.88 2.53 0.58 4.17 4.16 7.15 7.9 1.23 2.47 2.88 1.97 5.38 2.37 4.66 4.08 7.83 7.21 5.99 0.58 3.59 2.18 2.44 2.18 2.67 2.96 3.73 4.94 4.25 3.74 1.47 1.05 0.44 2.92 1.37 6.87 
0.58 4.1 2.65 1.39 7.78 1.87 4.2 1.31 0.2 0.04 6.69 5.71 3.53 5.35 1.83 5.35 0.37 6.32 6.2 1.18 0.93 6.33 3.69 3.41 6.49 6.32 3.67 2.28 4.99 6.15 5.43 0.58 6.7 2.38 4.69 1.97 3.12 4.75 0.87 3.48 7.34 3 7.89 6.29 2.07 6.06 3.75 1.9 
1.24 7.8 0.47 4.45 3.57 1.82 7.74 1.26 4.19 4.57 2.81 0.4 6.43 1.99 0.86 4.23 0.68 0.93 6.03 1.12 5.85 2.01 3.27 2.09 5.82 7.72 4.88 3.15 6.96 7.93 4.78 0.82 5.14 7.77 1.59 6.44 3.37 4.11 1.82 4.47 4.45 1.11 6.46 0.15 5.94 1.1 5.66 2.73 
4 4 4 4 4 4 4 4 4 4 4 4 4 4 4 4 4 4 4 4 4 4 4 4 4 4 4 4 4 4 4 4 4 4 4 4 4 4 4 4 4 4 4 4 4 4 4 4 
7.12 7.99 3.63 2.97 5.79 1.25 2.34 4.03 6 4.12 1.1 1.04 3.82 4.01 5.86 7.8 0.29 0.28 1.7 4.72 3.1 5.72 3.81 5.28 1.15 6.46 7.4 1.18 6.46 7.74 7.48 1.14 4.59 1.79 3.87 4.87 2.97 7.3 3.09 1.62 2.82 0.67 7.64 2.48 1.55 3.97 7.78 7.79 
6.21 2.52 3.63 0.12 1.32 4.17 1.25 1.4 2.57 6.09 2.09 0.36 7.47 7.33 6.76 6.83 7.93 0.37 1.87 7.89 2.35 7.6 2.41 2.81 3.99 3.93 0.31 7.77 6.5 2.71 7.5 5.37 1.24 1.97 1.75 1.79 0.86 6.07 5.19 3.46 3.79 3.23 3.51 1.81 2.99 4.13 0.42 2.03 
6.71 7 1.91 3.36 0.61 5.31 4.48 4.53 0.82 6.69 1.96 3.33 4.16 1.65 6.6 4.34 7.83 3.89 2.82 4.12 3.52 0.94 1.08 5.35 5.21 6.52 6.94 7.26 4.33 4.39 1.78 5.56 7.38 2.22 3.86 1.79 4.75 0.91 0.96 7.27 0.24 2.36 1.91 2.04 2.04 5.63 0.48 2.64 
3.43 5.05 2.17 1.38 7.54 4.69 3.04 6.48 1.86 5.79 5.77 3.98 0.15 3.08 1.44 3.77 2.95 0.28 5.35 3.18 5.2 1.98 7.55 0.43 2.11 7.54 1.94 1.9 1.71 1.07 0.99 5.79 7.9 7.72 2.2 1.13 5.68 7.92 3.53 4.21 1.64 3.83 0.49 1.42 4.99 0.89 5.34 2.71 
4.54 1.11 4.44 6.22 7.35 2.61 7.59 4.59 4.28 7.77 1.77 2.79 0.18 2.2 3.09 0.64 0.05 7.18 7.75 0.84 6.33 7.9 7.47 1.02 4.75 6.21 7.16 0.56 6.66 7.07 6.18 1.46 7.6 0.17 5.58 7.72 4.99 2.32 3.2 7.4 0.81 0.33 2.92 6.18 1.19 0.89 4.13 3.99 
0.43 2.95 6.54 7.06 5.44 7.9 6.34 5.93 1.54 5.32 2.45 2.57 2.52 3.23 5.54 1.14 1.1 4.52 6 0.22 3.34 5.17 2.25 2.99 4.55 4.24 2.68 6.06 5.48 0.77 6.25 5.04 7.06 0.25 7.65 6.63 6.79 0.67 6.19 5.13 2.01 7.55 2.59 4 6.49 0.6 3.1 0.73 
6.86 5.01 5 4.4 4.21 2.4 1.52 6.51 3.72 5.03 0.98 1.78 7.16 5 0.69 7.4 7.39 1.98 1.63 0.64 1.51 6.42 4.98 2.56 4 5.57 7.14 7.44 0.88 5.78 2.66 6.66 3.94 1.57 4.03 3.81 3.77 4.04 0.77 1.4 3.91 2.97 5.23 7.66 6.2 5.63 0.8 7.58 
2.25 0.14 7.2 5.7 0.55 4.36 7.28 6.56 6.61 0.52 1.03 7.73 3.25 2.15 2.9 3.62 3.64 5.47 7.07 1.56 0.97 6 6.72 2.03 0.5 6.17 7.61 3.63 6.33 0.61 0.43 0.98 0.58 1.3 4.7 7.2 2.27 0.73 7.26 3.78 4.28 7.58 4.98 1.45 4.39 6.28 5.58 1.66 
1 1 1 1 1 1 1 1 1 1 1 1 1 1 1 1 1 1 1 1 1 1 1 1 1 1 1 1 1 1 1 1 1 1 1 1 1 1 1 1 1 1 1 1 1 1 1 1 
1 1 1 1 1 1 1 1 1 1 1 1 1 1 1 1 1 1 1 1 1 1 1 1 1 1 1 1 1 1 1 1 1 1 1 1 1 1 1 1 1 1 1 1 1 1 1 1 
1 1 1 1 1 1 1 1 1 1 1 1 1 1 1 1 1 1 1 1 1 1 1 1 1 1 1 1 1 1 1 1 1 1 1 1 1 1 1 1 1 1 1 1 1 1 1 1 
1 1 1 1 1 1 1 1 1 1 1 1 1 1 1 1 1 1 1 1 1 1 1 1 1 1 1 1 1 1 1 1 1 1 1 1 1 1 1 1 1 1 1 1 1 1 1 1 
1 1 1 1 1 1 1 1 1 1 1 1 1 1 1 1 1 1 1 1 1 1 1 1 1 1 1 1 1 1 1 1 1 1 1 1 1 1 1 1 1 1 1 1 1 1 1 1 
1 1 1 1 1 1 1 1 1 1 1 1 1 1 1 1 1 1 1 1 1 1 1 1 1 1 1 1 1 1 1 1 1 1 1 1 1 1 1 1 1 1 1 1 1 1 1 1 
1 1 1 1 1 1 1 1 1 1 1 1 1 1 1 1 1 1 1 1 1 1 1 1 1 1 1 1 1 1 1 1 1 1 1 1 1 1 1 1 1 1 1 1 1 1 1 1 
1 1 1 1 1 1 1 1 1 1 1 1 1 1 1 1 1 1 1 1 1 1 1 1 1 1 1 1 1 1 1 1 1 1 1 1 1 1 1 1 1 1 1 1 1 1 1 1 
1 1 1 1 1 1 1 1 1 1 1 1 1 1 1 1 1 1 1 1 1 1 1 1 1 1 1 1 1 1 1 1 1 1 1 1 1 1 1 1 1 1 1 1 1 1 1 1 
1 1 1 1 1 1 1 1 1 1 1 1 1 1 1 1 1 1 1 1 1 1 1 1 1 1 1 1 1 1 1 1 1 1 1 1 1 1 1 1 1 1 1 1 1 1 1 1 
1 1 1 1 1 1 1 1 1 1 1 1 1 1 1 1 1 1 1 1 1 1 1 1 1 1 1 1 1 1 1 1 1 1 1 1 1 1 1 1 1 1 1 1 1 1 1 1 
1 1 1 1 1 1 1 1 1 1 1 1 1 1 1 1 1 1 1 1 1 1 1 1 1 1 1 1 1 1 1 1 1 1 1 1 1 1 1 1 1 1 1 1 1 1 1 1 
0.01 0.01 0.01 0.01 0.01 0.01 0.01 0.01 0.01 0.01 0.01 0.01 0.01 0.01 0.01 0.01 0.01 0.01 0.01 0.01 0.01 0.01 0.01 0.01 0.01 0.01 0.01 0.01 0.01 0.01 0.01 0.01 0.01 0.01 0.01 0.01 0.01 0.01 0.01 0.01 0.01 0.01 0.01 0.01 0.01 0.01 0.01 0.01 
0.02 0.02 0.02 0.02 0.02 0.02 0.02 0.02 0.02 0.02 0.02 0.02 0.02 0.02 0.02 0.02 0.02 0.02 0.02 0.02 0.02 0.02 0.02 0.02 0.02 0.02 0.02 0.02 0.02 0.02 0.02 0.02 0.02 0.02 0.02 0.02 0.02 0.02 0.02 0.02 0.02 0.02 0.02 0.02 0.02 0.02 0.02 0.02 
0.03 0.03 0.03 0.03 0.03 0.03 0.03 0.03 0.03 0.03 0.03 0.03 0.03 0.03 0.03 0.03 0.03 0.03 0.03 0.03 0.03 0.03 0.03 0.03 0.03 0.03 0.03 0.03 0.03 0.03 0.03 0.03 0.03 0.03 0.03 0.03 0.03 0.03 0.03 0.03 0.03 0.03 0.03 0.03 0.03 0.03 0.03 0.03 
0.04 0.04 0.04 0.04 0.04 0.04 0.04 0.04 0.04 0.04 0.04 0.04 0.04 0.04 0.04 0.04 0.04 0.04 0.04 0.04 0.04 0.04 0.04 0.04 0.04 0.04 0.04 0.04 0.04 0.04 0.04 0.04 0.04 0.04 0.04 0.04 0.04 0.04 0.04 0.04 0.04 0.04 0.04 0.04 0.04 0.04 0.04 0.04 
0.125 0.125 0.125 0.125 0.125 0.125 0.125 0.125 0.125 0.125 0.125 0.125 0.125 0.125 0.125 0.125 0.125 0.125 0.125 0.125 0.125 0.125 0.125 0.125 0.125 0.125 0.125 0.125 0.125 0.125 0.125 0.125 0.125 0.125 0.125 0.125 0.125 0.125 0.125 0.125 0.125 0.125 0.125 0.125 0.125 0.125 0.125 0.125 
0.25 0.25 0.25 0.25 0.25 0.25 0.25 0.25 0.25 0.25 0.25 0.25 0.25 0.25 0.25 0.25 0.25 0.25 0.25 0.25 0.25 0.25 0.25 0.25 0.25 0.25 0.25 0.25 0.25 0.25 0.25 0.25 0.25 0.25 0.25 0.25 0.25 0.25 0.25 0.25 0.25 0.25 0.25 0.25 0.25 0.25 0.25 0.25 
0.375 0.375 0.375 0.375 0.375 0.375 0.375 0.375 0.375 0.375 0.375 0.375 0.375 0.375 0.375 0.375 0.375 0.375 0.375 0.375 0.375 0.375 0.375 0.375 0.375 0.375 0.375 0.375 0.375 0.375 0.375 0.375 0.375 0.375 0.375 0.375 0.375 0.375 0.375 0.375 0.375 0.375 0.375 0.375 0.375 0.375 0.375 0.375 
0.5 0.5 0.5 0.5 0.5 0.5 0.5 0.5 0.5 0.5 0.5 0.5 0.5 0.5 0.5 0.5 0.5 0.5 0.5 0.5 0.5 0.5 0.5 0.5 0.5 0.5 0.5 0.5 0.5 0.5 0.5 0.5 0.5 0.5 0.5 0.5 0.5 0.5 0.5 0.5 0.5 0.5 0.5 0.5 0.5 0.5 0.5 0.5 
0.625 0.625 0.625 0.625 0.625 0.625 0.625 0.625 0.625 0.625 0.625 0.625 0.625 0.625 0.625 0.625 0.625 0.625 0.625 0.625 0.625 0.625 0.625 0.625 0.625 0.625 0.625 0.625 0.625 0.625 0.625 0.625 0.625 0.625 0.625 0.625 0.625 0.625 0.625 0.625 0.625 0.625 0.625 0.625 0.625 0.625 0.625 0.625 
0.75 0.75 0.75 0.75 0.75 0.75 0.75 0.75 0.75 0.75 0.75 0.75 0.75 0.75 0.75 0.75 0.75 0.75 0.75 0.75 0.75 0.75 0.75 0.75 0.75 0.75 0.75 0.75 0.75 0.75 0.75 0.75 0.75 0.75 0.75 0.75 0.75 0.75 0.75 0.75 0.75 0.75 0.75 0.75 0.75 0.75 0.75 0.75 
0.875 0.875 0.875 0.875 0.875 0.875 0.875 0.875 0.875 0.875 0.875 0.875 0.875 0.875 0.875 0.875 0.875 0.875 0.875 0.875 0.875 0.875 0.875 0.875 0.875 0.875 0.875 0.875 0.875 0.875 0.875 0.875 0.875 0.875 0.875 0.875 0.875 0.875 0.875 0.875 0.875 0.875 0.875 0.875 0.875 0.875 0.875 0.875 
1 1 1 1 1 1 1 1 1 1 1 1 1 1 1 1 1 1 1 1 1 1 1 1 1 1 1 1 1 1 1 1 1 1 1 1 1 1 1 1 1 1 1 1 1 1 1 1 
